PROBLEM NAME: eil51_n8
KNAPSACK DATA TYPE: uncorrelated
DIMENSION: 8
NUMBER OF ITEMS: 35
CAPACITY OF KNAPSACK: 8686
MIN SPEED: 0.1
MAX SPEED: 1
RENTING RATIO: 20.64
EDGE_WEIGHT_TYPE: CEIL_2D
NODE_COORD_SECTION	(INDEX, X, Y):
1	52	64
2	57	58
3	16	57
4	27	68
5	58	48
6	10	17
7	39	10
8	48	28
ITEMS SECTION	(INDEX, PROFIT, WEIGHT, ASSIGNED NODE NUMBER):
1	979	192	4
2	928	539	4
3	848	454	4
4	814	834	4
5	813	354	4
6	792	68	3
7	790	280	3
8	786	810	3
9	773	586	3
10	753	519	3
11	752	4	6
12	714	698	6
13	710	872	6
14	682	337	6
15	652	486	6
16	647	883	7
17	605	134	7
18	575	685	7
19	488	354	7
20	477	851	7
21	393	17	8
22	374	13	8
23	373	110	8
24	364	139	8
25	353	938	8
26	264	58	5
27	245	675	5
28	242	954	5
29	234	355	5
30	229	211	5
31	225	696	2
32	112	139	2
33	111	936	2
34	70	246	2
35	50	498	2
